(set-logic QF_S)
(declare-fun var_0xINPUT_60120 () String)
(assert (and (not (= var_0xINPUT_60120 "qXdHDo7IZR")) (= (len var_0xINPUT_60120) 0) (not (= var_0xINPUT_60120 "Example:")) (not (= var_0xINPUT_60120 "qXdHDo7IZR"))))
(check-sat var_0xINPUT_60120)